\ LP format - for model browsing. Use MPS format to capture full model detail.
Maximize
obj:   x[5] + x[1] + x[6] + x[2] + x[8] + x[4] + x[9] + x[11] + x[13] + x[14]
   + x[7] + x[15] + x[16] + x[10] + x[12] + x[17] + x[18] + x[19] + x[21]
   + x[22] + x[23] + x[24] + x[25] + x[3] + x[27] + x[28] + x[29] + x[30]
   + x[31] + x[32] + x[33] + x[34] + x[35] + x[36] + x[20] + x[37] + x[38]
   + x[39] + x[26] + x[40] + x[41] + x[42] + x[43] + x[44] + x[45] + x[46]
   + x[47] + x[48] + x[49] + x[50] + x[51] + x[52] + x[53] + x[54] + x[55]
   + x[56] + x[57] + x[58] + x[59] + x[60] + x[61] + x[62] + x[63] + x[64]
   + x[65] + x[66] + x[67] + x[68] + x[69] + x[70] + x[71] + x[72] + x[73]
   + x[74] + x[75] + x[76] + x[77] + x[78] + x[79] + x[80] + x[81] + x[82]
   + x[83] + x[84] + x[85] + x[86] + x[87] + x[88] + x[89] + x[90] + x[91]
   + x[92] + x[93] + x[94] + x[95] + x[96] + x[97] + x[98] + x[99] + x[100]
   + x[101] + x[102] + x[103] + x[104] + x[105] + x[106] + x[107] + x[108]
   + x[109] + x[110] + x[111] + x[112] + x[113] + x[114] + x[115] + x[116]
   + x[117] + x[118] + x[119] + x[120] + x[121] + x[122] + x[123] + x[124]
   + x[125]
Subject To
 nod5: 12 x[5] + x[1] + x[13] + x[19] + x[30] + x[35] + x[65] + x[77]
   + x[82] + x[84] + x[92] + x[118] + x[121] <= 12
 nod1: x[5] + 9 x[1] + x[29] + x[44] + x[53] + x[79] + x[80] + x[113]
   + x[120] + x[123] <= 9
 nod6: 13 x[6] + x[2] + x[9] + x[27] + x[38] + x[42] + x[56] + x[67]
   + x[69] + x[75] + x[82] + x[109] + x[120] + x[123] <= 13
 nod2: x[6] + 9 x[2] + x[11] + x[17] + x[27] + x[32] + x[40] + x[46]
   + x[79] + x[105] <= 9
 nod8: 12 x[8] + x[4] + x[15] + x[19] + x[21] + x[42] + x[57] + x[58]
   + x[62] + x[65] + x[103] + x[105] + x[110] <= 12
 nod4: x[8] + 8 x[4] + x[9] + x[38] + x[69] + x[72] + x[99] + x[105]
   + x[113] <= 8
 nod9: x[6] + x[4] + 16 x[9] + x[14] + x[28] + x[49] + x[52] + x[61]
   + x[66] + x[73] + x[77] + x[84] + x[91] + x[96] + x[100] + x[101]
   + x[111] <= 16
 nod11: x[2] + 13 x[11] + x[19] + x[32] + x[63] + x[67] + x[71] + x[77]
   + x[88] + x[96] + x[103] + x[106] + x[121] + x[122] <= 13
 nod13: x[5] + 12 x[13] + x[14] + x[23] + x[37] + x[46] + x[83] + x[84]
   + x[96] + x[99] + x[101] + x[116] + x[119] <= 12
 nod14: x[9] + x[13] + 14 x[14] + x[7] + x[52] + x[57] + x[61] + x[66]
   + x[76] + x[79] + x[80] + x[86] + x[87] + x[100] + x[103] <= 14
 nod7: x[14] + 8 x[7] + x[21] + x[41] + x[42] + x[51] + x[73] + x[77]
   + x[98] <= 8
 nod15: x[8] + 9 x[15] + x[30] + x[35] + x[55] + x[66] + x[69] + x[92]
   + x[93] + x[116] <= 9
 nod16: 14 x[16] + x[10] + x[12] + x[35] + x[41] + x[45] + x[59] + x[62]
   + x[78] + x[87] + x[98] + x[104] + x[105] + x[106] + x[114] <= 14
 nod10: x[16] + 11 x[10] + x[25] + x[31] + x[33] + x[46] + x[62] + x[67]
   + x[81] + x[87] + x[110] + x[118] <= 11
 nod12: x[16] + 12 x[12] + x[18] + x[34] + x[35] + x[42] + x[46] + x[47]
   + x[52] + x[72] + x[73] + x[100] + x[103] <= 12
 nod17: x[2] + 16 x[17] + x[22] + x[28] + x[38] + x[51] + x[52] + x[58]
   + x[61] + x[84] + x[94] + x[98] + x[99] + x[102] + x[112] + x[113]
   + x[122] <= 16
 nod18: x[12] + 8 x[18] + x[32] + x[66] + x[75] + x[84] + x[90] + x[114]
   + x[123] <= 8
 nod19: x[5] + x[8] + x[11] + 10 x[19] + x[28] + x[42] + x[48] + x[66]
   + x[98] + x[113] + x[114] <= 10
 nod21: x[8] + x[7] + 7 x[21] + x[24] + x[65] + x[74] + x[84] + x[92] <= 7
 nod22: x[17] + 13 x[22] + x[37] + x[41] + x[50] + x[54] + x[67] + x[68]
   + x[82] + x[85] + x[86] + x[90] + x[91] + x[120] <= 13
 nod23: x[13] + 8 x[23] + x[50] + x[71] + x[98] + x[110] + x[113] + x[115]
   + x[123] <= 8
 nod24: x[21] + 15 x[24] + x[29] + x[35] + x[45] + x[48] + x[50] + x[62]
   + x[63] + x[73] + x[76] + x[84] + x[88] + x[91] + x[112] + x[120] <= 15
 nod25: x[10] + 9 x[25] + x[3] + x[42] + x[46] + x[55] + x[69] + x[74]
   + x[106] + x[111] <= 9
 nod3: x[25] + 11 x[3] + x[35] + x[38] + x[41] + x[56] + x[62] + x[63]
   + x[88] + x[112] + x[115] + x[116] <= 11
 nod27: x[6] + x[2] + 14 x[27] + x[31] + x[36] + x[51] + x[70] + x[92]
   + x[98] + x[99] + x[103] + x[106] + x[116] + x[120] + x[124] <= 14
 nod28: x[9] + x[17] + x[19] + 10 x[28] + x[30] + x[52] + x[53] + x[66]
   + x[70] + x[74] + x[81] <= 10
 nod29: x[1] + x[24] + 8 x[29] + x[43] + x[54] + x[63] + x[64] + x[69]
   + x[118] <= 8
 nod30: x[5] + x[15] + x[28] + 8 x[30] + x[47] + x[53] + x[57] + x[63]
   + x[76] <= 8
 nod31: x[10] + x[27] + 10 x[31] + x[61] + x[67] + x[70] + x[74] + x[85]
   + x[91] + x[115] + x[119] <= 10
 nod32: x[2] + x[11] + x[18] + 15 x[32] + x[34] + x[50] + x[62] + x[70]
   + x[76] + x[85] + x[86] + x[98] + x[101] + x[103] + x[105] + x[112]
   <= 15
 nod33: x[10] + 7 x[33] + x[43] + x[63] + x[86] + x[93] + x[121] + x[124]
   <= 7
 nod34: x[12] + x[32] + 6 x[34] + x[44] + x[70] + x[103] + x[125] <= 6
 nod35: x[5] + x[15] + x[16] + x[12] + x[24] + x[3] + 17 x[35] + x[36]
   + x[41] + x[43] + x[51] + x[56] + x[63] + x[67] + x[68] + x[76] + x[96]
   + x[117] <= 17
 nod36: x[27] + x[35] + 11 x[36] + x[20] + x[46] + x[47] + x[57] + x[61]
   + x[65] + x[91] + x[102] + x[103] <= 11
 nod20: x[36] + 7 x[20] + x[47] + x[81] + x[85] + x[97] + x[102] + x[124]
   <= 7
 nod37: x[13] + x[22] + 12 x[37] + x[40] + x[49] + x[59] + x[62] + x[65]
   + x[66] + x[67] + x[77] + x[82] + x[88] <= 12
 nod38: x[6] + x[4] + x[17] + x[3] + 10 x[38] + x[56] + x[63] + x[88]
   + x[94] + x[103] + x[116] <= 10
 nod39: 7 x[39] + x[26] + x[63] + x[72] + x[74] + x[79] + x[94] + x[105]
   <= 7
 nod26: x[39] + 10 x[26] + x[46] + x[57] + x[65] + x[72] + x[82] + x[88]
   + x[93] + x[116] + x[117] <= 10
 nod40: x[2] + x[37] + 11 x[40] + x[71] + x[72] + x[76] + x[82] + x[85]
   + x[92] + x[111] + x[119] + x[124] <= 11
 nod41: x[7] + x[16] + x[22] + x[3] + x[35] + 12 x[41] + x[50] + x[51]
   + x[80] + x[89] + x[108] + x[110] + x[122] <= 12
 nod42: x[6] + x[8] + x[7] + x[12] + x[19] + x[25] + 16 x[42] + x[51]
   + x[59] + x[64] + x[84] + x[88] + x[102] + x[106] + x[107] + x[108]
   + x[122] <= 16
 nod43: x[29] + x[33] + x[35] + 8 x[43] + x[49] + x[55] + x[57] + x[68]
   + x[78] <= 8
 nod44: x[1] + x[34] + 9 x[44] + x[53] + x[56] + x[87] + x[90] + x[97]
   + x[120] + x[122] <= 9
 nod45: x[16] + x[24] + 10 x[45] + x[62] + x[64] + x[67] + x[83] + x[89]
   + x[93] + x[107] + x[122] <= 10
 nod46: x[2] + x[13] + x[10] + x[12] + x[25] + x[36] + x[26] + 11 x[46]
   + x[47] + x[91] + x[106] + x[111] <= 11
 nod47: x[12] + x[30] + x[36] + x[20] + x[46] + 14 x[47] + x[50] + x[61]
   + x[67] + x[99] + x[103] + x[105] + x[115] + x[120] + x[124] <= 14
 nod48: x[19] + x[24] + 11 x[48] + x[51] + x[52] + x[54] + x[65] + x[73]
   + x[86] + x[93] + x[100] + x[111] <= 11
 nod49: x[9] + x[37] + x[43] + 15 x[49] + x[52] + x[55] + x[58] + x[78]
   + x[84] + x[98] + x[99] + x[104] + x[107] + x[110] + x[114] + x[125]
   <= 15
 nod50: x[22] + x[23] + x[24] + x[32] + x[41] + x[47] + 13 x[50] + x[55]
   + x[57] + x[73] + x[83] + x[91] + x[110] + x[117] <= 13
 nod51: x[7] + x[17] + x[27] + x[35] + x[41] + x[42] + x[48] + 18 x[51]
   + x[59] + x[63] + x[73] + x[82] + x[89] + x[106] + x[107] + x[108]
   + x[114] + x[117] + x[122] <= 18
 nod52: x[9] + x[14] + x[12] + x[17] + x[28] + x[48] + x[49] + 16 x[52]
   + x[58] + x[61] + x[63] + x[80] + x[92] + x[102] + x[111] + x[118]
   + x[121] <= 16
 nod53: x[1] + x[28] + x[30] + x[44] + 13 x[53] + x[62] + x[68] + x[84]
   + x[90] + x[91] + x[111] + x[113] + x[115] + x[122] <= 13
 nod54: x[22] + x[29] + x[48] + 9 x[54] + x[55] + x[62] + x[83] + x[97]
   + x[112] + x[118] <= 9
 nod55: x[15] + x[25] + x[43] + x[49] + x[50] + x[54] + 13 x[55] + x[58]
   + x[62] + x[64] + x[77] + x[97] + x[119] + x[124] <= 13
 nod56: x[6] + x[3] + x[35] + x[38] + x[44] + 12 x[56] + x[60] + x[62]
   + x[71] + x[84] + x[99] + x[105] + x[118] <= 12
 nod57: x[8] + x[14] + x[30] + x[36] + x[26] + x[43] + x[50] + 12 x[57]
   + x[59] + x[60] + x[64] + x[84] + x[114] <= 12
 nod58: x[8] + x[17] + x[49] + x[52] + x[55] + 16 x[58] + x[61] + x[64]
   + x[65] + x[77] + x[82] + x[97] + x[100] + x[101] + x[108] + x[112]
   + x[119] <= 16
 nod59: x[16] + x[37] + x[42] + x[51] + x[57] + 10 x[59] + x[69] + x[74]
   + x[93] + x[103] + x[122] <= 10
 nod60: x[56] + x[57] + 6 x[60] + x[77] + x[95] + x[110] + x[125] <= 6
 nod61: x[9] + x[14] + x[17] + x[31] + x[36] + x[47] + x[52] + x[58]
   + 13 x[61] + x[77] + x[93] + x[95] + x[96] + x[111] <= 13
 nod62: x[8] + x[16] + x[10] + x[24] + x[3] + x[32] + x[37] + x[45] + x[53]
   + x[54] + x[55] + x[56] + 19 x[62] + x[66] + x[75] + x[89] + x[90]
   + x[92] + x[111] + x[125] <= 19
 nod63: x[11] + x[24] + x[3] + x[29] + x[30] + x[33] + x[35] + x[38]
   + x[39] + x[51] + x[52] + 15 x[63] + x[69] + x[84] + x[123] + x[124]
   <= 15
 nod64: x[29] + x[42] + x[45] + x[55] + x[57] + x[58] + 14 x[64] + x[66]
   + x[77] + x[91] + x[106] + x[108] + x[115] + x[119] + x[121] <= 14
 nod65: x[5] + x[8] + x[21] + x[36] + x[37] + x[26] + x[48] + x[58]
   + 12 x[65] + x[69] + x[75] + x[85] + x[103] <= 12
 nod66: x[9] + x[14] + x[15] + x[18] + x[19] + x[28] + x[37] + x[62]
   + x[64] + 16 x[66] + x[74] + x[75] + x[101] + x[102] + x[108] + x[112]
   + x[122] <= 16
 nod67: x[6] + x[11] + x[10] + x[22] + x[31] + x[35] + x[37] + x[45]
   + x[47] + 11 x[67] + x[69] + x[116] <= 11
 nod68: x[22] + x[35] + x[43] + x[53] + 10 x[68] + x[80] + x[86] + x[91]
   + x[97] + x[116] + x[119] <= 10
 nod69: x[6] + x[4] + x[15] + x[25] + x[29] + x[59] + x[63] + x[65] + x[67]
   + 18 x[69] + x[77] + x[78] + x[79] + x[83] + x[96] + x[97] + x[99]
   + x[103] + x[109] <= 18
 nod70: x[27] + x[28] + x[31] + x[32] + x[34] + 10 x[70] + x[90] + x[93]
   + x[94] + x[106] + x[118] <= 10
 nod71: x[11] + x[23] + x[40] + x[56] + 10 x[71] + x[87] + x[94] + x[98]
   + x[110] + x[113] + x[119] <= 10
 nod72: x[4] + x[12] + x[39] + x[26] + x[40] + 12 x[72] + x[73] + x[78]
   + x[87] + x[91] + x[107] + x[113] + x[124] <= 12
 nod73: x[9] + x[7] + x[12] + x[24] + x[48] + x[50] + x[51] + x[72]
   + 11 x[73] + x[92] + x[97] + x[105] <= 11
 nod74: x[21] + x[25] + x[28] + x[31] + x[39] + x[59] + x[66] + 13 x[74]
   + x[79] + x[82] + x[89] + x[92] + x[104] + x[107] <= 13
 nod75: x[6] + x[18] + x[62] + x[65] + x[66] + 8 x[75] + x[96] + x[98]
   + x[109] <= 8
 nod76: x[14] + x[24] + x[30] + x[32] + x[35] + x[40] + 13 x[76] + x[80]
   + x[83] + x[87] + x[94] + x[99] + x[104] + x[110] <= 13
 nod77: x[5] + x[9] + x[11] + x[7] + x[37] + x[55] + x[58] + x[60] + x[61]
   + x[64] + x[69] + 19 x[77] + x[84] + x[95] + x[96] + x[97] + x[101]
   + x[106] + x[107] + x[110] <= 19
 nod78: x[16] + x[43] + x[49] + x[69] + x[72] + 11 x[78] + x[82] + x[84]
   + x[91] + x[110] + x[112] + x[115] <= 11
 nod79: x[1] + x[2] + x[14] + x[39] + x[69] + x[74] + 9 x[79] + x[85]
   + x[89] + x[111] <= 9
 nod80: x[1] + x[14] + x[41] + x[52] + x[68] + x[76] + 14 x[80] + x[82]
   + x[91] + x[97] + x[105] + x[106] + x[114] + x[117] + x[125] <= 14
 nod81: x[10] + x[28] + x[20] + 8 x[81] + x[82] + x[86] + x[91] + x[94]
   + x[123] <= 8
 nod82: x[5] + x[6] + x[22] + x[37] + x[26] + x[40] + x[51] + x[58] + x[74]
   + x[78] + x[80] + x[81] + 15 x[82] + x[86] + x[106] + x[117] <= 15
 nod83: x[13] + x[45] + x[50] + x[54] + x[69] + x[76] + 13 x[83] + x[93]
   + x[98] + x[104] + x[105] + x[108] + x[114] + x[123] <= 13
 nod84: x[5] + x[9] + x[13] + x[17] + x[18] + x[21] + x[24] + x[42] + x[49]
   + x[53] + x[56] + x[57] + x[63] + x[77] + x[78] + 23 x[84] + x[89]
   + x[95] + x[97] + x[101] + x[102] + x[110] + x[116] + x[122] <= 23
 nod85: x[22] + x[31] + x[32] + x[20] + x[40] + x[65] + x[79] + 10 x[85]
   + x[100] + x[104] + x[125] <= 10
 nod86: x[14] + x[22] + x[32] + x[33] + x[48] + x[68] + x[81] + x[82]
   + 10 x[86] + x[92] + x[102] <= 10
 nod87: x[14] + x[16] + x[10] + x[44] + x[71] + x[72] + x[76] + 7 x[87]
   <= 7
 nod88: x[11] + x[24] + x[3] + x[37] + x[38] + x[26] + x[42] + 12 x[88]
   + x[91] + x[105] + x[106] + x[107] + x[123] <= 12
 nod89: x[41] + x[45] + x[51] + x[62] + x[74] + x[79] + x[84] + 12 x[89]
   + x[98] + x[99] + x[110] + x[115] + x[122] <= 12
 nod90: x[18] + x[22] + x[44] + x[53] + x[62] + x[70] + 8 x[90] + x[94]
   + x[97] <= 8
 nod91: x[9] + x[22] + x[24] + x[31] + x[36] + x[46] + x[50] + x[53]
   + x[64] + x[68] + x[72] + x[78] + x[80] + x[81] + x[88] + 18 x[91]
   + x[93] + x[96] + x[120] <= 18
 nod92: x[5] + x[15] + x[21] + x[27] + x[40] + x[52] + x[62] + x[73]
   + x[74] + x[86] + 13 x[92] + x[95] + x[115] + x[123] <= 13
 nod93: x[15] + x[33] + x[26] + x[45] + x[48] + x[59] + x[61] + x[70]
   + x[83] + x[91] + 16 x[93] + x[97] + x[106] + x[115] + x[118] + x[121]
   + x[123] <= 16
 nod94: x[17] + x[38] + x[39] + x[70] + x[71] + x[76] + x[81] + x[90]
   + 10 x[94] + x[95] + x[114] <= 10
 nod95: x[60] + x[61] + x[77] + x[84] + x[92] + x[94] + 6 x[95] <= 6
 nod96: x[9] + x[11] + x[13] + x[35] + x[61] + x[69] + x[75] + x[77]
   + x[91] + 13 x[96] + x[97] + x[113] + x[117] + x[122] <= 13
 nod97: x[20] + x[44] + x[54] + x[55] + x[58] + x[68] + x[69] + x[73]
   + x[77] + x[80] + x[84] + x[90] + x[93] + x[96] + 16 x[97] + x[101]
   + x[110] <= 16
 nod98: x[7] + x[16] + x[17] + x[19] + x[23] + x[27] + x[32] + x[49]
   + x[71] + x[75] + x[83] + x[89] + 14 x[98] + x[111] + x[114] <= 14
 nod99: x[4] + x[13] + x[17] + x[27] + x[47] + x[49] + x[56] + x[69]
   + x[76] + x[89] + 12 x[99] + x[120] + x[125] <= 12
 nod100: x[9] + x[14] + x[12] + x[48] + x[58] + x[85] + 8 x[100] + x[106]
   + x[115] <= 8
 nod101: x[9] + x[13] + x[32] + x[58] + x[66] + x[77] + x[84] + x[97]
   + 9 x[101] + x[122] <= 9
 nod102: x[17] + x[36] + x[20] + x[42] + x[52] + x[66] + x[84] + x[86]
   + 10 x[102] + x[104] + x[124] <= 10
 nod103: x[8] + x[11] + x[14] + x[12] + x[27] + x[32] + x[34] + x[36]
   + x[38] + x[47] + x[59] + x[65] + x[69] + 15 x[103] + x[115] + x[117]
   <= 15
 nod104: x[16] + x[49] + x[74] + x[76] + x[83] + x[85] + x[102] + 9 x[104]
   + x[105] + x[122] <= 9
 nod105: x[2] + x[8] + x[4] + x[16] + x[32] + x[39] + x[47] + x[56] + x[73]
   + x[80] + x[83] + x[88] + x[104] + 15 x[105] + x[124] + x[125] <= 15
 nod106: x[11] + x[16] + x[25] + x[27] + x[42] + x[46] + x[51] + x[64]
   + x[70] + x[77] + x[80] + x[82] + x[88] + x[93] + x[100] + 15 x[106]
   <= 15
 nod107: x[42] + x[45] + x[49] + x[51] + x[72] + x[74] + x[77] + x[88]
   + 10 x[107] + x[116] + x[122] <= 10
 nod108: x[41] + x[42] + x[51] + x[58] + x[64] + x[66] + x[83] + 11 x[108]
   + x[110] + x[113] + x[119] + x[122] <= 11
 nod109: x[6] + x[69] + x[75] + 5 x[109] + x[115] + x[118] <= 5
 nod110: x[8] + x[10] + x[23] + x[41] + x[49] + x[50] + x[60] + x[71]
   + x[76] + x[77] + x[78] + x[84] + x[89] + x[97] + x[108] + 19 x[110]
   + x[115] + x[118] + x[124] + x[125] <= 19
 nod111: x[9] + x[25] + x[40] + x[46] + x[48] + x[52] + x[53] + x[61]
   + x[62] + x[79] + x[98] + 11 x[111] <= 11
 nod112: x[17] + x[24] + x[3] + x[32] + x[54] + x[58] + x[66] + x[78]
   + 9 x[112] + x[113] <= 9
 nod113: x[1] + x[4] + x[17] + x[19] + x[23] + x[53] + x[71] + x[72]
   + x[96] + x[108] + x[112] + 12 x[113] + x[121] <= 12
 nod114: x[16] + x[18] + x[19] + x[49] + x[51] + x[57] + x[80] + x[83]
   + x[94] + x[98] + 12 x[114] + x[115] + x[119] <= 12
 nod115: x[23] + x[3] + x[31] + x[47] + x[53] + x[64] + x[78] + x[89]
   + x[92] + x[93] + x[100] + x[103] + x[109] + x[110] + x[114] + 16 x[115]
   + x[118] <= 16
 nod116: x[13] + x[15] + x[3] + x[27] + x[38] + x[26] + x[67] + x[68]
   + x[84] + x[107] + 12 x[116] + x[119] + x[123] <= 12
 nod117: x[35] + x[26] + x[50] + x[51] + x[80] + x[82] + x[96] + x[103]
   + 10 x[117] + x[119] + x[124] <= 10
 nod118: x[5] + x[10] + x[29] + x[52] + x[54] + x[56] + x[70] + x[93]
   + x[109] + x[110] + x[115] + 13 x[118] + x[119] + x[121] <= 13
 nod119: x[13] + x[31] + x[40] + x[55] + x[58] + x[64] + x[68] + x[71]
   + x[108] + x[114] + x[116] + x[117] + x[118] + 13 x[119] <= 13
 nod120: x[1] + x[6] + x[22] + x[24] + x[27] + x[44] + x[47] + x[91]
   + x[99] + 9 x[120] <= 9
 nod121: x[5] + x[11] + x[33] + x[52] + x[64] + x[93] + x[113] + x[118]
   + 8 x[121] <= 8
 nod122: x[11] + x[17] + x[41] + x[42] + x[44] + x[45] + x[51] + x[53]
   + x[59] + x[66] + x[84] + x[89] + x[96] + x[101] + x[104] + x[107]
   + x[108] + 18 x[122] + x[124] <= 18
 nod123: x[1] + x[6] + x[18] + x[23] + x[63] + x[81] + x[83] + x[88]
   + x[92] + x[93] + x[116] + 11 x[123] <= 11
 nod124: x[27] + x[33] + x[20] + x[40] + x[47] + x[55] + x[63] + x[72]
   + x[102] + x[105] + x[110] + x[117] + x[122] + 13 x[124] <= 13
 nod125: x[34] + x[49] + x[60] + x[62] + x[80] + x[85] + x[99] + x[105]
   + x[110] + 9 x[125] <= 9
Bounds
Binaries
 x[5] x[1] x[6] x[2] x[8] x[4] x[9] x[11] x[13] x[14] x[7] x[15] x[16]
 x[10] x[12] x[17] x[18] x[19] x[21] x[22] x[23] x[24] x[25] x[3] x[27]
 x[28] x[29] x[30] x[31] x[32] x[33] x[34] x[35] x[36] x[20] x[37] x[38]
 x[39] x[26] x[40] x[41] x[42] x[43] x[44] x[45] x[46] x[47] x[48] x[49]
 x[50] x[51] x[52] x[53] x[54] x[55] x[56] x[57] x[58] x[59] x[60] x[61]
 x[62] x[63] x[64] x[65] x[66] x[67] x[68] x[69] x[70] x[71] x[72] x[73]
 x[74] x[75] x[76] x[77] x[78] x[79] x[80] x[81] x[82] x[83] x[84] x[85]
 x[86] x[87] x[88] x[89] x[90] x[91] x[92] x[93] x[94] x[95] x[96] x[97]
 x[98] x[99] x[100] x[101] x[102] x[103] x[104] x[105] x[106] x[107] x[108]
 x[109] x[110] x[111] x[112] x[113] x[114] x[115] x[116] x[117] x[118]
 x[119] x[120] x[121] x[122] x[123] x[124] x[125]
End
